
--- Job PROSUMOD.gms Start 10/25/18 14:38:33 24.7.4 r58773 WEX-WEI x86 64bit/MS Windows
GAMS 24.7.4   Copyright (C) 1987-2016 GAMS Development. All rights reserved
Licensee: Medium MUD - 10 User License                   S170316:1123AO-GEN
          Deutsches Institut fuer Wirtschaftsforschung DIW, AbteilungDC3975
          License for teaching and research at degree granting institutions
          License Admin: Claudia Kemfert, bbibra@diw.de                    
--- Starting compilation
--- PROSUMOD.gms(71) 3 Mb
--- .24h_FirstHours.gms(3) 3 Mb
--- PROSUMOD.gms(152) 4 Mb
--- GDXin=C:\Users\Lenovo\Documents\GitHub\prosumage\Code\Prosumage_Opt\Prosumage_Module\data\input_data.gdx
--- PROSUMOD.gms(472) 28 Mb
--- Starting execution: elapsed 0:00:00.106
--- PROSUMOD.gms(432) 30 Mb
--- Generating LP model prosumod_lp
--- PROSUMOD.gms(436) 47 Mb
---   52,927 rows  61,324 columns  188,653 non-zeroes
--- Executing CPLEX: elapsed 0:00:00.756

IBM ILOG CPLEX   24.7.4 r58773 Released Sep 19, 2016 WEI x86 64bit/MS Windows 
--- GAMS/Cplex licensed for continuous and discrete problems.
Cplex 12.6.3.0

Reading data...
Starting Cplex...
Space for names approximately 4.06 Mb
Use option 'names no' to turn use of names off
Tried aggregator 1 time.
LP Presolve eliminated 15725 rows and 27044 columns.
Aggregator did 6170 substitutions.
Reduced LP has 31032 rows, 28110 columns, and 96742 nonzeros.
Presolve time = 0.13 sec. (40.72 ticks)
Initializing dual steep norms . . .

Iteration log . . .
Iteration:     1   Dual objective     =          -154.360825
Iteration:  1028   Dual objective     =           119.084469
Iteration:  1917   Dual objective     =           309.585526
Iteration:  2356   Dual objective     =           385.207922
Iteration:  3127   Dual objective     =           516.217062
Iteration:  3291   Dual objective     =           533.351546
Iteration:  4008   Dual objective     =           648.122531
Iteration:  4780   Dual objective     =           743.941039
Iteration:  5476   Dual objective     =           830.567235
Iteration:  5937   Dual objective     =           860.383444
Iteration:  6534   Dual objective     =           889.622179
Iteration:  6934   Dual objective     =           911.643230
Iteration:  7306   Dual objective     =           922.080880
Iteration:  7653   Dual objective     =           938.080180
Iteration:  7971   Dual objective     =           949.246346
Iteration:  8317   Dual objective     =           962.583160
Iteration:  8670   Dual objective     =           971.149024
Iteration:  9067   Dual objective     =           979.235069
Iteration:  9442   Dual objective     =           985.670301
Iteration:  9779   Dual objective     =           989.374125
Iteration: 10081   Dual objective     =           993.104604
Iteration: 10463   Dual objective     =           996.763269
Iteration: 10762   Dual objective     =          1001.927396
Iteration: 11104   Dual objective     =          1004.136353
LP status(1): optimal
Cplex Time: 2.16sec (det. 2000.58 ticks)

Optimal solution found.
Objective :        1004.402229

--- Restarting execution
--- PROSUMOD.gms(436) 31 Mb
--- Reading solution for model prosumod_lp
--- PROSUMOD.gms(436) 36 Mb
--- Executing after solve: elapsed 0:00:03.571
--- PROSUMOD.gms(471) 37 Mb
*** Status: Normal completion
--- Job PROSUMOD.gms Stop 10/25/18 14:38:37 elapsed 0:00:03.795
